ATTRACTION = { A, B, C, D, E };
l = 2;
u = 5;

m = 6;

pair_attraction = [| 0, 2, -1, 3, 3
                   | 2, 0, -4, 5, 2
                   | -1, -4, 0, 3, -1
                   | 3, 5, 3, 0, 2
                   | 3, 2, -1, 2, 0|];

cost = [1, 3, 4, 2, 2];